objective value:                                10371
t_x_0                                               1 	(obj:11)
t_x_5                                               1 	(obj:9)
t_x_7                                               1 	(obj:11)
t_x_8                                               1 	(obj:24)
t_x_11                                              1 	(obj:40)
t_x_16                                              1 	(obj:17)
t_x_17                                              1 	(obj:28)
t_x_21                                              1 	(obj:36)
t_x_23                                              1 	(obj:60)
t_x_25                                              1 	(obj:0)
t_x_26                                              1 	(obj:10)
t_x_27                                              1 	(obj:3)
t_x_28                                              1 	(obj:59)
t_x_30                                              1 	(obj:22)
t_x_35                                              1 	(obj:7)
t_x_38                                              1 	(obj:58)
t_x_42                                              1 	(obj:5)
t_x_56                                              1 	(obj:31)
t_x_57                                              1 	(obj:4)
t_x_59                                              1 	(obj:21)
t_x_61                                              1 	(obj:26)
t_x_62                                              1 	(obj:4)
t_x_66                                              1 	(obj:7)
t_x_69                                              1 	(obj:1)
t_x_71                                              1 	(obj:22)
t_x_73                                              1 	(obj:19)
t_x_74                                              1 	(obj:4)
t_x_76                                              1 	(obj:0)
t_x_77                                              1 	(obj:16)
t_x_79                                              1 	(obj:20)
t_x_80                                              1 	(obj:7)
t_x_81                                              1 	(obj:6)
t_x_82                                              1 	(obj:14)
t_x_83                                              1 	(obj:3)
t_x_86                                              1 	(obj:47)
t_x_97                                              1 	(obj:63)
t_x_99                                              1 	(obj:17)
t_x_111                                             1 	(obj:23)
t_x_114                                             1 	(obj:0)
t_x_119                                             1 	(obj:6)
t_x_120                                             1 	(obj:2)
t_x_124                                             1 	(obj:13)
t_x_126                                             1 	(obj:6)
t_x_131                                             1 	(obj:12)
t_x_134                                             1 	(obj:3)
t_x_142                                             1 	(obj:13)
t_x_145                                             1 	(obj:10)
t_x_151                                             1 	(obj:11)
t_x_156                                             1 	(obj:2)
t_x_158                                             1 	(obj:9)
t_x_172                                             1 	(obj:7)
t_x_182                                             1 	(obj:24)
t_x_187                                             1 	(obj:7)
t_x_188                                             1 	(obj:15)
t_x_189                                             1 	(obj:0)
t_x_190                                             1 	(obj:6)
t_x_191                                             1 	(obj:17)
t_x_193                                             1 	(obj:8)
t_x_198                                             1 	(obj:27)
t_x_201                                             1 	(obj:15)
t_x_207                                             1 	(obj:5)
t_x_210                                             1 	(obj:25)
t_x_215                                             1 	(obj:20)
t_x_219                                             1 	(obj:16)
t_x_220                                             1 	(obj:0)
t_x_222                                             1 	(obj:1)
t_x_223                                             1 	(obj:46)
t_x_224                                             1 	(obj:47)
t_x_225                                             1 	(obj:13)
t_x_228                                             1 	(obj:39)
t_x_235                                             1 	(obj:23)
t_x_237                                             1 	(obj:8)
t_x_238                                             1 	(obj:22)
t_x_240                                             1 	(obj:12)
t_x_242                                             1 	(obj:6)
t_x_249                                             1 	(obj:0)
t_x_251                                             1 	(obj:9)
t_x_255                                             1 	(obj:27)
t_x_256                                             1 	(obj:0)
t_x_258                                             1 	(obj:19)
t_x_260                                             1 	(obj:23)
t_x_261                                             1 	(obj:7)
t_x_262                                             1 	(obj:38)
t_x_263                                             1 	(obj:2)
t_x_264                                             1 	(obj:0)
t_x_265                                             1 	(obj:43)
t_x_268                                             1 	(obj:6)
t_x_269                                             1 	(obj:9)
t_x_272                                             1 	(obj:9)
t_x_276                                             1 	(obj:7)
t_x_280                                             1 	(obj:9)
t_x_284                                             1 	(obj:23)
t_x_288                                             1 	(obj:38)
t_x_289                                             1 	(obj:12)
t_x_291                                             1 	(obj:12)
t_x_294                                             1 	(obj:3)
t_x_295                                             1 	(obj:28)
t_x_296                                             1 	(obj:4)
t_x_301                                             1 	(obj:2)
t_x_302                                             1 	(obj:8)
t_x_303                                             1 	(obj:18)
t_x_307                                             1 	(obj:22)
t_x_315                                             1 	(obj:7)
t_x_326                                             1 	(obj:22)
t_x_328                                             1 	(obj:42)
t_x_332                                             1 	(obj:31)
t_x_334                                             1 	(obj:33)
t_x_336                                             1 	(obj:16)
t_x_338                                             1 	(obj:9)
t_x_344                                             1 	(obj:55)
t_x_346                                             1 	(obj:6)
t_x_348                                             1 	(obj:30)
t_x_349                                             1 	(obj:38)
t_x_351                                             1 	(obj:13)
t_x_352                                             1 	(obj:4)
t_x_359                                             1 	(obj:19)
t_x_360                                             1 	(obj:27)
t_x_363                                             1 	(obj:16)
t_x_366                                             1 	(obj:12)
t_x_369                                             1 	(obj:4)
t_x_379                                             1 	(obj:7)
t_x_380                                             1 	(obj:12)
t_x_381                                             1 	(obj:18)
t_x_384                                             1 	(obj:1)
t_x_385                                             1 	(obj:10)
t_x_389                                             1 	(obj:9)
t_x_391                                             1 	(obj:26)
t_x_400                                             1 	(obj:15)
t_x_402                                             1 	(obj:7)
t_x_403                                             1 	(obj:8)
t_x_405                                             1 	(obj:8)
t_x_409                                             1 	(obj:10)
t_x_411                                             1 	(obj:12)
t_x_413                                             1 	(obj:31)
t_x_415                                             1 	(obj:9)
t_x_417                                             1 	(obj:27)
t_x_420                                             1 	(obj:21)
t_x_422                                             1 	(obj:2)
t_x_426                                             1 	(obj:4)
t_x_427                                             1 	(obj:11)
t_x_429                                             1 	(obj:42)
t_x_431                                             1 	(obj:12)
t_x_434                                             1 	(obj:17)
t_x_435                                             1 	(obj:4)
t_x_441                                             1 	(obj:19)
t_x_443                                             1 	(obj:36)
t_x_446                                             1 	(obj:6)
t_x_448                                             1 	(obj:13)
t_x_457                                             1 	(obj:29)
t_x_466                                             1 	(obj:21)
t_x_467                                             1 	(obj:0)
t_x_474                                             1 	(obj:22)
t_x_475                                             1 	(obj:0)
t_x_476                                             1 	(obj:6)
t_x_478                                             1 	(obj:52)
t_x_480                                             1 	(obj:13)
t_x_482                                             1 	(obj:40)
t_x_494                                             1 	(obj:16)
t_x_501                                             1 	(obj:8)
t_x_502                                             1 	(obj:10)
t_x_508                                             1 	(obj:47)
t_x_511                                             1 	(obj:0)
t_x_516                                             1 	(obj:10)
t_x_522                                             1 	(obj:3)
t_x_526                                             1 	(obj:0)
t_x_529                                             1 	(obj:15)
t_x_531                                             1 	(obj:12)
t_x_533                                             1 	(obj:16)
t_x_534                                             1 	(obj:4)
t_x_539                                             1 	(obj:13)
t_x_540                                             1 	(obj:0)
t_x_545                                             1 	(obj:8)
t_x_548                                             1 	(obj:33)
t_x_552                                             1 	(obj:5)
t_x_553                                             1 	(obj:25)
t_x_561                                             1 	(obj:61)
t_x_562                                             1 	(obj:36)
t_x_564                                             1 	(obj:12)
t_x_565                                             1 	(obj:50)
t_x_571                                             1 	(obj:2)
t_x_575                                             1 	(obj:1)
t_x_577                                             1 	(obj:31)
t_x_578                                             1 	(obj:12)
t_x_582                                             1 	(obj:13)
t_x_583                                             1 	(obj:32)
t_x_584                                             1 	(obj:22)
t_x_589                                             1 	(obj:1)
t_x_594                                             1 	(obj:9)
t_x_596                                             1 	(obj:30)
t_x_599                                             1 	(obj:22)
t_x_600                                             1 	(obj:21)
t_x_602                                             1 	(obj:10)
t_x_608                                             1 	(obj:0)
t_x_621                                             1 	(obj:27)
t_x_628                                             1 	(obj:18)
t_x_633                                             1 	(obj:30)
t_x_636                                             1 	(obj:1)
t_x_638                                             1 	(obj:8)
t_x_644                                             1 	(obj:76)
t_x_648                                             1 	(obj:20)
t_x_650                                             1 	(obj:0)
t_x_652                                             1 	(obj:22)
t_x_655                                             1 	(obj:46)
t_x_656                                             1 	(obj:27)
t_x_657                                             1 	(obj:10)
t_x_661                                             1 	(obj:0)
t_x_664                                             1 	(obj:27)
t_x_667                                             1 	(obj:35)
t_x_670                                             1 	(obj:14)
t_x_677                                             1 	(obj:3)
t_x_678                                             1 	(obj:27)
t_x_680                                             1 	(obj:9)
t_x_684                                             1 	(obj:11)
t_x_686                                             1 	(obj:4)
t_x_688                                             1 	(obj:29)
t_x_690                                             1 	(obj:70)
t_x_691                                             1 	(obj:8)
t_x_699                                             1 	(obj:46)
t_x_701                                             1 	(obj:31)
t_x_703                                             1 	(obj:2)
t_x_704                                             1 	(obj:1)
t_x_709                                             1 	(obj:20)
t_x_711                                             1 	(obj:41)
t_x_715                                             1 	(obj:23)
t_x_722                                             1 	(obj:32)
t_x_723                                             1 	(obj:11)
t_x_725                                             1 	(obj:12)
t_x_726                                             1 	(obj:9)
t_x_733                                             1 	(obj:30)
t_x_734                                             1 	(obj:18)
t_x_735                                             1 	(obj:0)
t_x_736                                             1 	(obj:43)
t_x_738                                             1 	(obj:7)
t_x_740                                             1 	(obj:8)
t_x_741                                             1 	(obj:53)
t_x_757                                             1 	(obj:6)
t_x_765                                             1 	(obj:12)
t_x_766                                             1 	(obj:8)
t_x_771                                             1 	(obj:45)
t_x_774                                             1 	(obj:4)
t_x_777                                             1 	(obj:21)
t_x_780                                             1 	(obj:25)
t_x_784                                             1 	(obj:17)
t_x_785                                             1 	(obj:8)
t_x_786                                             1 	(obj:14)
t_x_787                                             1 	(obj:25)
t_x_789                                             1 	(obj:8)
t_x_790                                             1 	(obj:40)
t_x_796                                             1 	(obj:0)
t_x_797                                             1 	(obj:27)
t_x_798                                             1 	(obj:21)
t_x_805                                             1 	(obj:39)
t_x_811                                             1 	(obj:0)
t_x_816                                             1 	(obj:13)
t_x_820                                             1 	(obj:8)
t_x_821                                             1 	(obj:38)
t_x_822                                             1 	(obj:31)
t_x_824                                             1 	(obj:2)
t_x_825                                             1 	(obj:10)
t_x_826                                             1 	(obj:10)
t_x_830                                             1 	(obj:5)
t_x_837                                             1 	(obj:2)
t_x_838                                             1 	(obj:7)
t_x_839                                             1 	(obj:10)
t_x_843                                             1 	(obj:2)
t_x_851                                             1 	(obj:0)
t_x_854                                             1 	(obj:57)
t_x_855                                             1 	(obj:15)
t_x_867                                             1 	(obj:16)
t_x_869                                             1 	(obj:35)
t_x_870                                             1 	(obj:12)
t_x_871                                             1 	(obj:13)
t_x_873                                             1 	(obj:12)
t_x_878                                             1 	(obj:25)
t_x_887                                             1 	(obj:18)
t_x_888                                             1 	(obj:18)
t_x_889                                             1 	(obj:34)
t_x_891                                             1 	(obj:10)
t_x_893                                             1 	(obj:24)
t_x_896                                             1 	(obj:0)
t_x_901                                             1 	(obj:20)
t_x_902                                             1 	(obj:63)
t_x_903                                             1 	(obj:3)
t_x_908                                             1 	(obj:1)
t_x_910                                             1 	(obj:5)
t_x_920                                             1 	(obj:8)
t_x_921                                             1 	(obj:16)
t_x_922                                             1 	(obj:22)
t_x_925                                             1 	(obj:24)
t_x_927                                             1 	(obj:44)
t_x_933                                             1 	(obj:25)
t_x_941                                             1 	(obj:12)
t_x_946                                             1 	(obj:7)
t_x_951                                             1 	(obj:35)
t_x_954                                             1 	(obj:11)
t_x_955                                             1 	(obj:0)
t_x_956                                             1 	(obj:7)
t_x_957                                             1 	(obj:7)
t_x_959                                             1 	(obj:23)
t_x_967                                             1 	(obj:16)
t_x_972                                             1 	(obj:19)
t_x_976                                             1 	(obj:44)
t_x_979                                             1 	(obj:44)
t_x_983                                             1 	(obj:3)
t_x_986                                             1 	(obj:24)
t_x_987                                             1 	(obj:59)
t_x_990                                             1 	(obj:30)
t_x_995                                             1 	(obj:12)
t_x_998                                             1 	(obj:51)
t_x_1001                                            1 	(obj:9)
t_x_1009                                            1 	(obj:0)
t_x_1015                                            1 	(obj:16)
t_x_1019                                            1 	(obj:33)
t_x_1021                                            1 	(obj:0)
t_x_1022                                            1 	(obj:10)
t_x_1027                                            1 	(obj:7)
t_x_1032                                            1 	(obj:2)
t_x_1035                                            1 	(obj:0)
t_x_1038                                            1 	(obj:22)
t_x_1039                                            1 	(obj:12)
t_x_1044                                            1 	(obj:0)
t_x_1045                                            1 	(obj:2)
t_x_1048                                            1 	(obj:8)
t_x_1049                                            1 	(obj:42)
t_x_1052                                            1 	(obj:9)
t_x_1056                                            1 	(obj:12)
t_x_1068                                            1 	(obj:6)
t_x_1074                                            1 	(obj:28)
t_x_1079                                            1 	(obj:0)
t_x_1080                                            1 	(obj:4)
t_x_1082                                            1 	(obj:29)
t_x_1099                                            1 	(obj:11)
t_x_1102                                            1 	(obj:16)
t_x_1107                                            1 	(obj:27)
t_x_1108                                            1 	(obj:16)
t_x_1114                                            1 	(obj:2)
t_x_1117                                            1 	(obj:25)
t_x_1118                                            1 	(obj:20)
t_x_1119                                            1 	(obj:34)
t_x_1122                                            1 	(obj:14)
t_x_1123                                            1 	(obj:6)
t_x_1129                                            1 	(obj:56)
t_x_1131                                            1 	(obj:8)
t_x_1138                                            1 	(obj:38)
t_x_1143                                            1 	(obj:25)
t_x_1152                                            1 	(obj:26)
t_x_1156                                            1 	(obj:0)
t_x_1158                                            1 	(obj:19)
t_x_1161                                            1 	(obj:9)
t_x_1162                                            1 	(obj:4)
t_x_1168                                            1 	(obj:64)
t_x_1171                                            1 	(obj:47)
t_x_1172                                            1 	(obj:62)
t_x_1173                                            1 	(obj:39)
t_x_1175                                            1 	(obj:28)
t_x_1179                                            1 	(obj:14)
t_x_1180                                            1 	(obj:20)
t_x_1181                                            1 	(obj:15)
t_x_1183                                            1 	(obj:36)
t_x_1185                                            1 	(obj:1)
t_x_1187                                            1 	(obj:14)
t_x_1189                                            1 	(obj:14)
t_x_1191                                            1 	(obj:14)
t_x_1197                                            1 	(obj:16)
t_x_1200                                            1 	(obj:0)
t_x_1201                                            1 	(obj:16)
t_x_1202                                            1 	(obj:15)
t_x_1214                                            1 	(obj:7)
t_x_1216                                            1 	(obj:17)
t_x_1219                                            1 	(obj:44)
t_x_1221                                            1 	(obj:1)
t_x_1223                                            1 	(obj:15)
t_x_1231                                            1 	(obj:2)
t_x_1236                                            1 	(obj:26)
t_x_1247                                            1 	(obj:0)
t_x_1251                                            1 	(obj:11)
t_x_1255                                            1 	(obj:10)
t_x_1261                                            1 	(obj:36)
t_x_1267                                            1 	(obj:26)
t_x_1270                                            1 	(obj:25)
t_x_1271                                            1 	(obj:10)
t_x_1273                                            1 	(obj:13)
t_x_1275                                            1 	(obj:11)
t_x_1276                                            1 	(obj:24)
t_x_1279                                            1 	(obj:4)
t_x_1281                                            1 	(obj:18)
t_x_1282                                            1 	(obj:38)
t_x_1283                                            1 	(obj:3)
t_x_1284                                            1 	(obj:1)
t_x_1285                                            1 	(obj:30)
t_x_1286                                            1 	(obj:16)
t_x_1288                                            1 	(obj:55)
t_x_1290                                            1 	(obj:3)
t_x_1291                                            1 	(obj:11)
t_x_1292                                            1 	(obj:25)
t_x_1293                                            1 	(obj:2)
t_x_1295                                            1 	(obj:20)
t_x_1296                                            1 	(obj:6)
t_x_1311                                            1 	(obj:1)
t_x_1312                                            1 	(obj:11)
t_x_1319                                            1 	(obj:0)
t_x_1330                                            1 	(obj:8)
t_x_1347                                            1 	(obj:12)
t_x_1349                                            1 	(obj:46)
t_x_1351                                            1 	(obj:15)
t_x_1354                                            1 	(obj:32)
t_x_1356                                            1 	(obj:13)
t_x_1359                                            1 	(obj:10)
t_x_1362                                            1 	(obj:21)
t_x_1363                                            1 	(obj:3)
t_x_1365                                            1 	(obj:10)
t_x_1366                                            1 	(obj:35)
t_x_1374                                            1 	(obj:47)
t_x_1377                                            1 	(obj:29)
t_x_1385                                            1 	(obj:8)
t_x_1386                                            1 	(obj:8)
t_x_1388                                            1 	(obj:20)
t_x_1389                                            1 	(obj:19)
t_x_1392                                            1 	(obj:36)
t_x_1393                                            1 	(obj:22)
t_x_1395                                            1 	(obj:29)
t_x_1399                                            1 	(obj:8)
t_x_1400                                            1 	(obj:9)
t_x_1401                                            1 	(obj:26)
t_x_1409                                            1 	(obj:28)
t_x_1410                                            1 	(obj:18)
t_x_1411                                            1 	(obj:43)
t_x_1416                                            1 	(obj:27)
t_x_1420                                            1 	(obj:4)
t_x_1423                                            1 	(obj:26)
t_x_1429                                            1 	(obj:35)
t_x_1431                                            1 	(obj:9)
t_x_1435                                            1 	(obj:54)
t_x_1436                                            1 	(obj:8)
t_x_1442                                            1 	(obj:8)
t_x_1443                                            1 	(obj:1)
t_x_1444                                            1 	(obj:35)
t_x_1447                                            1 	(obj:54)
t_x_1449                                            1 	(obj:7)
t_x_1455                                            1 	(obj:33)
t_x_1456                                            1 	(obj:26)
t_x_1457                                            1 	(obj:2)
t_x_1461                                            1 	(obj:17)
t_x_1464                                            1 	(obj:10)
t_x_1471                                            1 	(obj:31)
t_x_1479                                            1 	(obj:27)
t_x_1481                                            1 	(obj:1)
t_x_1489                                            1 	(obj:27)
t_x_1509                                            1 	(obj:8)
t_x_1514                                            1 	(obj:19)
t_x_1518                                            1 	(obj:18)
t_x_1523                                            1 	(obj:44)
t_x_1524                                            1 	(obj:13)
t_x_1527                                            1 	(obj:16)
t_x_1528                                            1 	(obj:22)
t_x_1529                                            1 	(obj:9)
t_x_1533                                            1 	(obj:17)
t_x_1548                                            1 	(obj:21)
t_x_1550                                            1 	(obj:3)
t_x_1553                                            1 	(obj:3)
t_x_1562                                            1 	(obj:22)
t_x_1565                                            1 	(obj:10)
t_x_1566                                            1 	(obj:30)
t_x_1573                                            1 	(obj:36)
t_x_1576                                            1 	(obj:40)
t_x_1577                                            1 	(obj:6)
t_x_1578                                            1 	(obj:27)
t_x_1582                                            1 	(obj:33)
t_x_1583                                            1 	(obj:3)
t_x_1584                                            1 	(obj:36)
t_x_1593                                            1 	(obj:27)
t_x_1597                                            1 	(obj:13)
t_x_1598                                            1 	(obj:9)
t_x_1602                                            1 	(obj:21)
t_x_1606                                            1 	(obj:13)
t_x_1607                                            1 	(obj:2)
t_x_1615                                            1 	(obj:6)
t_x_1617                                            1 	(obj:5)
t_x_1621                                            1 	(obj:32)
t_x_1622                                            1 	(obj:11)
t_x_1623                                            1 	(obj:22)
t_x_1625                                            1 	(obj:18)
t_x_1627                                            1 	(obj:25)
t_x_1631                                            1 	(obj:10)
t_x_1636                                            1 	(obj:12)
t_x_1639                                            1 	(obj:23)
t_x_1646                                            1 	(obj:12)
t_x_1647                                            1 	(obj:25)
t_x_1651                                            1 	(obj:10)
t_x_1652                                            1 	(obj:1)
t_x_1654                                            1 	(obj:14)
t_x_1655                                            1 	(obj:13)
t_x_1660                                            1 	(obj:17)
t_x_1662                                            1 	(obj:5)
t_x_1664                                            1 	(obj:17)
t_x_1665                                            1 	(obj:21)
t_x_1676                                            1 	(obj:37)
t_x_1681                                            1 	(obj:21)
t_x_1683                                            1 	(obj:4)
t_x_1686                                            1 	(obj:36)
t_x_1688                                            1 	(obj:10)
t_x_1691                                            1 	(obj:8)
t_x_1694                                            1 	(obj:16)
t_x_1698                                            1 	(obj:16)
t_x_1701                                            1 	(obj:10)
t_x_1718                                            1 	(obj:9)
t_x_1723                                            1 	(obj:36)
t_x_1724                                            1 	(obj:9)
t_x_1728                                            1 	(obj:25)
t_x_1733                                            1 	(obj:53)
t_x_1737                                            1 	(obj:17)
t_x_1740                                            1 	(obj:20)
t_x_1742                                            1 	(obj:23)
t_x_1747                                            1 	(obj:19)
t_x_1748                                            1 	(obj:28)
t_x_1753                                            1 	(obj:22)
t_x_1759                                            1 	(obj:26)
t_x_1761                                            1 	(obj:4)
t_x_1764                                            1 	(obj:14)
t_x_1769                                            1 	(obj:1)
t_x_1771                                            1 	(obj:2)
t_x_1772                                            1 	(obj:2)
t_x_1781                                            1 	(obj:10)
t_x_1785                                            1 	(obj:3)
t_x_1787                                            1 	(obj:14)
t_x_1789                                            1 	(obj:8)
t_x_1790                                            1 	(obj:0)
t_x_1791                                            1 	(obj:10)
t_x_1797                                            1 	(obj:23)
t_x_1798                                            1 	(obj:31)
t_x_1799                                            1 	(obj:18)
t_x_1803                                            1 	(obj:6)
t_x_1808                                            1 	(obj:10)
t_x_1809                                            1 	(obj:15)
t_x_1810                                            1 	(obj:9)
t_x_1816                                            1 	(obj:10)
t_x_1817                                            1 	(obj:10)
t_x_1824                                            1 	(obj:16)
t_x_1827                                            1 	(obj:15)
t_x_1828                                            1 	(obj:16)
t_x_1830                                            1 	(obj:45)
t_x_1831                                            1 	(obj:14)
t_x_1838                                            1 	(obj:7)
t_x_1842                                            1 	(obj:17)
t_x_1843                                            1 	(obj:27)
t_x_1844                                            1 	(obj:16)
t_x_1860                                            1 	(obj:2)
t_x_1861                                            1 	(obj:22)
t_x_1865                                            1 	(obj:49)
t_x_1866                                            1 	(obj:17)
t_x_1867                                            1 	(obj:22)
t_x_1868                                            1 	(obj:35)
t_x_1870                                            1 	(obj:19)
t_x_1875                                            1 	(obj:29)
t_x_1878                                            1 	(obj:29)
t_x_1884                                            1 	(obj:66)
t_x_1892                                            1 	(obj:34)
t_x_1898                                            1 	(obj:28)
t_x_1900                                            1 	(obj:14)
t_x_1904                                            1 	(obj:7)
t_x_1907                                            1 	(obj:0)
t_x_1908                                            1 	(obj:1)
t_x_1915                                            1 	(obj:11)
t_x_1920                                            1 	(obj:14)
t_x_1938                                            1 	(obj:13)
t_x_1939                                            1 	(obj:7)
t_x_1940                                            1 	(obj:12)
t_x_1944                                            1 	(obj:9)
t_x_1947                                            1 	(obj:5)
t_x_1952                                            1 	(obj:15)
t_x_1957                                            1 	(obj:35)
t_x_1963                                            1 	(obj:22)
t_x_1965                                            1 	(obj:22)
t_x_1966                                            1 	(obj:17)
t_x_1968                                            1 	(obj:7)
t_x_1973                                            1 	(obj:19)
t_x_1986                                            1 	(obj:11)
t_x_1989                                            1 	(obj:4)
t_x_1992                                            1 	(obj:17)
t_x_1995                                            1 	(obj:12)
t_x_1996                                            1 	(obj:14)
t_x_1997                                            1 	(obj:45)
t_x_1998                                            1 	(obj:10)
t_x_1999                                            1 	(obj:23)
